92-3-59-13-98-9-91-18-65-15-50-62-43-47-83-10-51-86-95-96-80-44-32-99-35-56-73-68-2-72-58-40-88-20-22-69-75-90-93-94-49-61-82-71-85-4-42-55-70-37-38-27-87-97-57-33-89-24-16-7-21-74-5-53-1-34-67-29-76-79-64-30-46-66-54-41-19-63-78-12-14-26-84-0-52-39-11-45-23-31-60-25-6-81-77-8-36-28-17-48 20880
